c SAT Problem 01 - Small Test Instance
c Simple satisfiable instance with 20 variables
c Generated for testing sequential processing
p cnf 20 55
1 -2 3 0
-1 4 5 0
2 -3 6 0
-4 7 8 0
3 -5 9 0
-6 10 11 0
4 -7 12 0
-8 13 14 0
5 -9 15 0
-10 16 17 0
6 -11 18 0
-12 19 20 0
7 -13 1 0
-14 2 3 0
8 -15 4 0
-16 5 6 0
9 -17 7 0
-18 8 9 0
10 -19 11 0
-20 12 13 0
11 -1 14 0
-2 15 16 0
12 -3 17 0
-4 18 19 0
13 -5 20 0
-6 1 2 0
14 -7 3 0
-8 4 5 0
15 -9 6 0
-10 7 8 0
16 -11 9 0
-12 10 11 0
17 -13 12 0
-14 13 14 0
18 -15 15 0
-16 16 17 0
19 -17 18 0
-18 19 20 0
20 -19 1 0
-20 2 0
1 2 -3 0
-1 -2 4 0
3 4 -5 0
-3 -4 6 0
5 6 -7 0
-5 -6 8 0
7 8 -9 0
-7 -8 10 0
9 10 -11 0
-9 -10 12 0
11 12 -13 0
-11 -12 14 0
13 14 -15 0
-13 -14 16 0
15 16 17 0